51
Lattice="5.4069 3.1216751704813874 0.0 -7.2092 6.243350340962775 0.0 0.0 0.0 14.7" Properties=species:S:1:pos:R:3 pbc="T T T"
Cl       0.00000000       2.08111678       0.00000000
Zr       0.00000000       0.00000000       1.79652162
N        1.80230000       1.04055839       2.24418042
N        0.00000000       0.00000000       3.95512028
Zr       1.80230000       1.04055839       4.40277908
Cl       0.00000000       2.08111678       6.19930069
Cl      -1.80230000       5.20279195       0.00000000
Zr      -1.80230000       3.12167517       1.79652162
N        0.00000000       4.16223356       2.24418042
N       -1.80230000       3.12167517       3.95512028
Zr       0.00000000       4.16223356       4.40277908
Cl      -1.80230000       5.20279195       6.19930069
Cl       3.60460000       2.08111678       0.00000000
Zr      -3.60460000       6.24335034       1.79652162
N       -1.80230000       7.28390873       2.24418042
N       -3.60460000       6.24335034       3.95512028
Zr      -1.80230000       7.28390873       4.40277908
Cl       3.60460000       2.08111678       6.19930069
Cl       1.80230000       5.20279195       0.00000000
Zr       1.80230000       3.12167517       1.79652162
N        3.60460000       4.16223356       2.24418042
N        1.80230000       3.12167517       3.95512028
Zr       3.60460000       4.16223356       4.40277908
Cl       1.80230000       5.20279195       6.19930069
Cl      -5.40690000       5.20279195       0.00000000
Zr      -0.00000000       6.24335034       1.79652162
N       -3.60460000       4.16223356       2.24418042
N       -0.00000000       6.24335034       3.95512028
Zr      -3.60460000       4.16223356       4.40277908
Cl      -5.40690000       5.20279195       6.19930069
Co      -1.22668700       1.37288871      10.44965000
C       -1.02913258       3.46357574      10.44965000
C       -1.75705544       3.04330929       9.29275570
C       -2.93485935       2.36330388       9.73465000
C       -2.93485935       2.36330388      11.16465000
C       -1.75705544       3.04330929      11.60654430
H       -0.08516489       4.00857574      10.44965000
H       -1.46535338       3.21172355       8.25610410
H       -3.69854526       1.92238962       9.09396408
H       -3.69854526       1.92238962      11.80533592
H       -1.46535338       3.21172355      12.64319590
C        0.68267829       0.49863234      10.44965000
C       -0.04524456       0.07836588       9.29275570
C       -1.22304848      -0.60163952       9.73465000
C       -1.22304848      -0.60163952      11.16465000
C       -0.04524456       0.07836588      11.60654430
H        1.62664598       1.04363234      10.44965000
H        0.24645749       0.24678015       8.25610410
H       -1.98673439      -1.04255379       9.09396408
H       -1.98673439      -1.04255379      11.80533592
H        0.24645749       0.24678015      12.64319590
